p cnf 41626 136
41601 0
41602 0
41603 0
41604 0
41605 0
41606 0
41607 0
41608 0
41609 0
41610 0
41611 0
41612 0
41613 0
41614 0
41615 0
41616 0
41617 0
41618 0
41619 0
41620 0
41621 0
41622 0
41623 0
41624 0
41625 0
41626 0
-41601 -41614 0
-41601 -41620 0
-41601 -41617 0
-41601 -41605 0
-41601 -41609 0
-41601 -41619 0
-41602 -41626 0
-41602 -41611 0
-41602 -41603 0
-41602 -41606 0
-41602 -41604 0
-41602 -41623 0
-41602 -41622 0
-41602 -41611 0
-41602 -41624 0
-41602 -41607 0
-41603 -41619 0
-41603 -41609 0
-41603 -41605 0
-41603 -41607 0
-41603 -41606 0
-41603 -41602 0
-41604 -41605 0
-41604 -41608 0
-41604 -41618 0
-41604 -41621 0
-41604 -41623 0
-41604 -41606 0
-41604 -41603 0
-41604 -41607 0
-41605 -41609 0
-41605 -41601 0
-41605 -41617 0
-41605 -41608 0
-41605 -41604 0
-41605 -41607 0
-41605 -41603 0
-41606 -41603 0
-41606 -41607 0
-41606 -41604 0
-41606 -41602 0
-41607 -41606 0
-41607 -41603 0
-41607 -41604 0
-41607 -41602 0
-41608 -41605 0
-41608 -41617 0
-41608 -41618 0
-41608 -41604 0
-41609 -41601 0
-41609 -41605 0
-41609 -41603 0
-41609 -41619 0
-41610 -41622 0
-41610 -41602 0
-41611 -41626 0
-41611 -41613 0
-41611 -41619 0
-41611 -41602 0
-41612 -41613 0
-41613 -41612 0
-41613 -41619 0
-41613 -41611 0
-41613 -41626 0
-41614 -41601 0
-41614 -41620 0
-41615 -41617 0
-41615 -41616 0
-41616 -41615 0
-41616 -41617 0
-41617 -41615 0
-41617 -41616 0
-41617 -41620 0
-41617 -41601 0
-41617 -41605 0
-41617 -41608 0
-41617 -41618 0
-41618 -41617 0
-41618 -41608 0
-41618 -41604 0
-41618 -41621 0
-41619 -41613 0
-41619 -41601 0
-41619 -41609 0
-41619 -41603 0
-41619 -41602 0
-41619 -41611 0
-41620 -41614 0
-41620 -41601 0
-41620 -41617 0
-41621 -41604 0
-41621 -41618 0
-41621 -41623 0
-41622 -41624 0
-41622 -41610 0
-41622 -41602 0
-41622 -41623 0
-41622 -41625 0
-41623 -41622 0
-41623 -41602 0
-41623 -41604 0
-41623 -41621 0
-41624 -41622 0
-41624 -41603 0
-41624 -41626 0
-41625 -41622 0
-41626 -41624 0
-41626 -41602 0
-41626 -41611 0
-41626 -41613 0